30
0   102   101
1   103   101
2   104   104
3   54   54
4   52   51
5   54   51
6   29   29
7   26   29
8   28   27
9   13   15
10   13   13
11   13   13
12   10   8
13   10   7
14   8   10
15   7   5
16   6   5
17   5   7
18   4   2
19   5   2
20   3   4
21   1   3
22   4   2
23   3   3
24   4   4
25   1   4
26   2   4
27   4   2
28   3   3
29   1   4
200
